170
0 22 84 56 134 114 120 132 141 160 
122 127 126 59 75 163 50 157 90 101 
106 83 45 164 150 116 10 66 49 31 
145 38 3 148 96 52 24 128 73 5 
61 152 40 158 138 54 58 137 119 118 
81 162 166 14 125 19 100 46 155 4 
28 153 112 71 104 92 30 105 99 98 
17 43 69 25 9 86 64 168 32 95 
18 67 27 42 53 6 76 78 39 167 
130 139 143 149 48 91 142 136 161 13 
147 7 88 94 79 2 103 57 121 26 
23 109 72 35 159 151 34 70 169 33 
87 111 129 115 133 68 51 80 77 74 
131 44 36 93 165 135 65 113 156 63 
107 146 60 124 29 108 37 110 85 11 
15 16 12 47 89 102 1 41 20 123 
55 82 21 117 140 62 97 144 154 8 
